(set-info :category "industrial")
(set-info :status sat)
(declare-fun x01 () (_ BitVec 8))
(declare-fun x03 () (_ BitVec 8))
(declare-fun x04 () (_ BitVec 8))
(declare-fun x06 () (_ BitVec 8))
(declare-fun x07 () (_ BitVec 8))
(declare-fun x08 () (_ BitVec 8))
(declare-fun x11 () (_ BitVec 8))
(declare-fun x12 () (_ BitVec 8))
(declare-fun x13 () (_ BitVec 8))
(declare-fun x15 () (_ BitVec 8))
(declare-fun x17 () (_ BitVec 8))
(declare-fun x20 () (_ BitVec 8))
(declare-fun x22 () (_ BitVec 8))
(declare-fun x24 () (_ BitVec 8))
(declare-fun x25 () (_ BitVec 8))
(declare-fun x28 () (_ BitVec 8))
(declare-fun x33 () (_ BitVec 8))
(declare-fun x35 () (_ BitVec 8))
(declare-fun x36 () (_ BitVec 8))
(declare-fun x37 () (_ BitVec 8))
(declare-fun x38 () (_ BitVec 8))
(declare-fun x40 () (_ BitVec 8))
(declare-fun x41 () (_ BitVec 8))
(declare-fun x43 () (_ BitVec 8))
(declare-fun x44 () (_ BitVec 8))
(declare-fun x47 () (_ BitVec 8))
(declare-fun x48 () (_ BitVec 8))
(declare-fun x50 () (_ BitVec 8))
(declare-fun x52 () (_ BitVec 8))
(declare-fun x53 () (_ BitVec 8))
(declare-fun x58 () (_ BitVec 8))
(declare-fun x61 () (_ BitVec 8))
(declare-fun x62 () (_ BitVec 8))
(declare-fun x64 () (_ BitVec 8))
(declare-fun x65 () (_ BitVec 8))
(declare-fun x66 () (_ BitVec 8))
(declare-fun x71 () (_ BitVec 8))
(declare-fun x74 () (_ BitVec 8))
(declare-fun x75 () (_ BitVec 8))
(declare-fun x76 () (_ BitVec 8))
(declare-fun x78 () (_ BitVec 8))
(declare-fun x80 () (_ BitVec 8))
(declare-fun x81 () (_ BitVec 8))
(declare-fun x82 () (_ BitVec 8))
(declare-fun x83 () (_ BitVec 8))
(declare-fun x84 () (_ BitVec 8))
(declare-fun x86 () (_ BitVec 8))
(assert (bvult x01 (_ bv9 8)))
(assert (bvult x03 (_ bv9 8)))
(assert (bvult x04 (_ bv9 8)))
(assert (bvult x06 (_ bv9 8)))
(assert (bvult x07 (_ bv9 8)))
(assert (bvult x08 (_ bv9 8)))
(assert (bvult x11 (_ bv9 8)))
(assert (bvult x12 (_ bv9 8)))
(assert (bvult x13 (_ bv9 8)))
(assert (bvult x15 (_ bv9 8)))
(assert (bvult x17 (_ bv9 8)))
(assert (bvult x20 (_ bv9 8)))
(assert (bvult x22 (_ bv9 8)))
(assert (bvult x24 (_ bv9 8)))
(assert (bvult x25 (_ bv9 8)))
(assert (bvult x28 (_ bv9 8)))
(assert (bvult x33 (_ bv9 8)))
(assert (bvult x35 (_ bv9 8)))
(assert (bvult x36 (_ bv9 8)))
(assert (bvult x37 (_ bv9 8)))
(assert (bvult x38 (_ bv9 8)))
(assert (bvult x40 (_ bv9 8)))
(assert (bvult x41 (_ bv9 8)))
(assert (bvult x43 (_ bv9 8)))
(assert (bvult x44 (_ bv9 8)))
(assert (bvult x47 (_ bv9 8)))
(assert (bvult x48 (_ bv9 8)))
(assert (bvult x50 (_ bv9 8)))
(assert (bvult x52 (_ bv9 8)))
(assert (bvult x53 (_ bv9 8)))
(assert (bvult x58 (_ bv9 8)))
(assert (bvult x61 (_ bv9 8)))
(assert (bvult x62 (_ bv9 8)))
(assert (bvult x64 (_ bv9 8)))
(assert (bvult x65 (_ bv9 8)))
(assert (bvult x66 (_ bv9 8)))
(assert (bvult x71 (_ bv9 8)))
(assert (bvult x74 (_ bv9 8)))
(assert (bvult x75 (_ bv9 8)))
(assert (bvult x76 (_ bv9 8)))
(assert (bvult x78 (_ bv9 8)))
(assert (bvult x80 (_ bv9 8)))
(assert (bvult x81 (_ bv9 8)))
(assert (bvult x82 (_ bv9 8)))
(assert (bvult x83 (_ bv9 8)))
(assert (bvult x84 (_ bv9 8)))
(assert (bvult x86 (_ bv9 8)))
(assert (not (= (_ bv2 8) x01)))
(assert (not (= (_ bv2 8) (_ bv5 8))))
(assert (not (= (_ bv2 8) x03)))
(assert (not (= (_ bv2 8) x04)))
(assert (not (= (_ bv2 8) (_ bv6 8))))
(assert (not (= (_ bv2 8) x06)))
(assert (not (= (_ bv2 8) x07)))
(assert (not (= (_ bv2 8) x08)))
(assert (not (= x01 (_ bv5 8))))
(assert (not (= x01 x03)))
(assert (not (= x01 x04)))
(assert (not (= x01 (_ bv6 8))))
(assert (not (= x01 x06)))
(assert (not (= x01 x07)))
(assert (not (= x01 x08)))
(assert (not (= (_ bv5 8) x03)))
(assert (not (= (_ bv5 8) x04)))
(assert (not (= (_ bv5 8) (_ bv6 8))))
(assert (not (= (_ bv5 8) x06)))
(assert (not (= (_ bv5 8) x07)))
(assert (not (= (_ bv5 8) x08)))
(assert (not (= x03 x04)))
(assert (not (= x03 (_ bv6 8))))
(assert (not (= x03 x06)))
(assert (not (= x03 x07)))
(assert (not (= x03 x08)))
(assert (not (= x04 (_ bv6 8))))
(assert (not (= x04 x06)))
(assert (not (= x04 x07)))
(assert (not (= x04 x08)))
(assert (not (= (_ bv6 8) x06)))
(assert (not (= (_ bv6 8) x07)))
(assert (not (= (_ bv6 8) x08)))
(assert (not (= x06 x07)))
(assert (not (= x06 x08)))
(assert (not (= x07 x08)))
(assert (not (= (_ bv4 8) x11)))
(assert (not (= (_ bv4 8) x12)))
(assert (not (= (_ bv4 8) x13)))
(assert (not (= (_ bv4 8) (_ bv3 8))))
(assert (not (= (_ bv4 8) x15)))
(assert (not (= (_ bv4 8) (_ bv5 8))))
(assert (not (= (_ bv4 8) x17)))
(assert (not (= (_ bv4 8) (_ bv1 8))))
(assert (not (= x11 x12)))
(assert (not (= x11 x13)))
(assert (not (= x11 (_ bv3 8))))
(assert (not (= x11 x15)))
(assert (not (= x11 (_ bv5 8))))
(assert (not (= x11 x17)))
(assert (not (= x11 (_ bv1 8))))
(assert (not (= x12 x13)))
(assert (not (= x12 (_ bv3 8))))
(assert (not (= x12 x15)))
(assert (not (= x12 (_ bv5 8))))
(assert (not (= x12 x17)))
(assert (not (= x12 (_ bv1 8))))
(assert (not (= x13 (_ bv3 8))))
(assert (not (= x13 x15)))
(assert (not (= x13 (_ bv5 8))))
(assert (not (= x13 x17)))
(assert (not (= x13 (_ bv1 8))))
(assert (not (= (_ bv3 8) x15)))
(assert (not (= (_ bv3 8) (_ bv5 8))))
(assert (not (= (_ bv3 8) x17)))
(assert (not (= (_ bv3 8) (_ bv1 8))))
(assert (not (= x15 (_ bv5 8))))
(assert (not (= x15 x17)))
(assert (not (= x15 (_ bv1 8))))
(assert (not (= (_ bv5 8) x17)))
(assert (not (= (_ bv5 8) (_ bv1 8))))
(assert (not (= x17 (_ bv1 8))))
(assert (not (= x20 (_ bv7 8))))
(assert (not (= x20 x22)))
(assert (not (= x20 (_ bv9 8))))
(assert (not (= x20 x24)))
(assert (not (= x20 x25)))
(assert (not (= x20 (_ bv3 8))))
(assert (not (= x20 (_ bv4 8))))
(assert (not (= x20 x28)))
(assert (not (= (_ bv7 8) x22)))
(assert (not (= (_ bv7 8) (_ bv9 8))))
(assert (not (= (_ bv7 8) x24)))
(assert (not (= (_ bv7 8) x25)))
(assert (not (= (_ bv7 8) (_ bv3 8))))
(assert (not (= (_ bv7 8) (_ bv4 8))))
(assert (not (= (_ bv7 8) x28)))
(assert (not (= x22 (_ bv9 8))))
(assert (not (= x22 x24)))
(assert (not (= x22 x25)))
(assert (not (= x22 (_ bv3 8))))
(assert (not (= x22 (_ bv4 8))))
(assert (not (= x22 x28)))
(assert (not (= (_ bv9 8) x24)))
(assert (not (= (_ bv9 8) x25)))
(assert (not (= (_ bv9 8) (_ bv3 8))))
(assert (not (= (_ bv9 8) (_ bv4 8))))
(assert (not (= (_ bv9 8) x28)))
(assert (not (= x24 x25)))
(assert (not (= x24 (_ bv3 8))))
(assert (not (= x24 (_ bv4 8))))
(assert (not (= x24 x28)))
(assert (not (= x25 (_ bv3 8))))
(assert (not (= x25 (_ bv4 8))))
(assert (not (= x25 x28)))
(assert (not (= (_ bv3 8) (_ bv4 8))))
(assert (not (= (_ bv3 8) x28)))
(assert (not (= (_ bv4 8) x28)))
(assert (not (= (_ bv6 8) (_ bv1 8))))
(assert (not (= (_ bv6 8) (_ bv3 8))))
(assert (not (= (_ bv6 8) x33)))
(assert (not (= (_ bv6 8) (_ bv9 8))))
(assert (not (= (_ bv6 8) x35)))
(assert (not (= (_ bv6 8) x36)))
(assert (not (= (_ bv6 8) x37)))
(assert (not (= (_ bv6 8) x38)))
(assert (not (= (_ bv1 8) (_ bv3 8))))
(assert (not (= (_ bv1 8) x33)))
(assert (not (= (_ bv1 8) (_ bv9 8))))
(assert (not (= (_ bv1 8) x35)))
(assert (not (= (_ bv1 8) x36)))
(assert (not (= (_ bv1 8) x37)))
(assert (not (= (_ bv1 8) x38)))
(assert (not (= (_ bv3 8) x33)))
(assert (not (= (_ bv3 8) (_ bv9 8))))
(assert (not (= (_ bv3 8) x35)))
(assert (not (= (_ bv3 8) x36)))
(assert (not (= (_ bv3 8) x37)))
(assert (not (= (_ bv3 8) x38)))
(assert (not (= x33 (_ bv9 8))))
(assert (not (= x33 x35)))
(assert (not (= x33 x36)))
(assert (not (= x33 x37)))
(assert (not (= x33 x38)))
(assert (not (= (_ bv9 8) x35)))
(assert (not (= (_ bv9 8) x36)))
(assert (not (= (_ bv9 8) x37)))
(assert (not (= (_ bv9 8) x38)))
(assert (not (= x35 x36)))
(assert (not (= x35 x37)))
(assert (not (= x35 x38)))
(assert (not (= x36 x37)))
(assert (not (= x36 x38)))
(assert (not (= x37 x38)))
(assert (not (= x40 x41)))
(assert (not (= x40 (_ bv8 8))))
(assert (not (= x40 x43)))
(assert (not (= x40 x44)))
(assert (not (= x40 (_ bv5 8))))
(assert (not (= x40 (_ bv4 8))))
(assert (not (= x40 x47)))
(assert (not (= x40 x48)))
(assert (not (= x41 (_ bv8 8))))
(assert (not (= x41 x43)))
(assert (not (= x41 x44)))
(assert (not (= x41 (_ bv5 8))))
(assert (not (= x41 (_ bv4 8))))
(assert (not (= x41 x47)))
(assert (not (= x41 x48)))
(assert (not (= (_ bv8 8) x43)))
(assert (not (= (_ bv8 8) x44)))
(assert (not (= (_ bv8 8) (_ bv5 8))))
(assert (not (= (_ bv8 8) (_ bv4 8))))
(assert (not (= (_ bv8 8) x47)))
(assert (not (= (_ bv8 8) x48)))
(assert (not (= x43 x44)))
(assert (not (= x43 (_ bv5 8))))
(assert (not (= x43 (_ bv4 8))))
(assert (not (= x43 x47)))
(assert (not (= x43 x48)))
(assert (not (= x44 (_ bv5 8))))
(assert (not (= x44 (_ bv4 8))))
(assert (not (= x44 x47)))
(assert (not (= x44 x48)))
(assert (not (= (_ bv5 8) (_ bv4 8))))
(assert (not (= (_ bv5 8) x47)))
(assert (not (= (_ bv5 8) x48)))
(assert (not (= (_ bv4 8) x47)))
(assert (not (= (_ bv4 8) x48)))
(assert (not (= x47 x48)))
(assert (not (= x50 (_ bv9 8))))
(assert (not (= x50 x52)))
(assert (not (= x50 x53)))
(assert (not (= x50 (_ bv1 8))))
(assert (not (= x50 (_ bv2 8))))
(assert (not (= x50 (_ bv7 8))))
(assert (not (= x50 (_ bv3 8))))
(assert (not (= x50 x58)))
(assert (not (= (_ bv9 8) x52)))
(assert (not (= (_ bv9 8) x53)))
(assert (not (= (_ bv9 8) (_ bv1 8))))
(assert (not (= (_ bv9 8) (_ bv2 8))))
(assert (not (= (_ bv9 8) (_ bv7 8))))
(assert (not (= (_ bv9 8) (_ bv3 8))))
(assert (not (= (_ bv9 8) x58)))
(assert (not (= x52 x53)))
(assert (not (= x52 (_ bv1 8))))
(assert (not (= x52 (_ bv2 8))))
(assert (not (= x52 (_ bv7 8))))
(assert (not (= x52 (_ bv3 8))))
(assert (not (= x52 x58)))
(assert (not (= x53 (_ bv1 8))))
(assert (not (= x53 (_ bv2 8))))
(assert (not (= x53 (_ bv7 8))))
(assert (not (= x53 (_ bv3 8))))
(assert (not (= x53 x58)))
(assert (not (= (_ bv1 8) (_ bv2 8))))
(assert (not (= (_ bv1 8) (_ bv7 8))))
(assert (not (= (_ bv1 8) (_ bv3 8))))
(assert (not (= (_ bv1 8) x58)))
(assert (not (= (_ bv2 8) (_ bv7 8))))
(assert (not (= (_ bv2 8) (_ bv3 8))))
(assert (not (= (_ bv2 8) x58)))
(assert (not (= (_ bv7 8) (_ bv3 8))))
(assert (not (= (_ bv7 8) x58)))
(assert (not (= (_ bv3 8) x58)))
(assert (not (= (_ bv8 8) x61)))
(assert (not (= (_ bv8 8) x62)))
(assert (not (= (_ bv8 8) (_ bv4 8))))
(assert (not (= (_ bv8 8) x64)))
(assert (not (= (_ bv8 8) x65)))
(assert (not (= (_ bv8 8) x66)))
(assert (not (= (_ bv8 8) (_ bv7 8))))
(assert (not (= (_ bv8 8) (_ bv3 8))))
(assert (not (= x61 x62)))
(assert (not (= x61 (_ bv4 8))))
(assert (not (= x61 x64)))
(assert (not (= x61 x65)))
(assert (not (= x61 x66)))
(assert (not (= x61 (_ bv7 8))))
(assert (not (= x61 (_ bv3 8))))
(assert (not (= x62 (_ bv4 8))))
(assert (not (= x62 x64)))
(assert (not (= x62 x65)))
(assert (not (= x62 x66)))
(assert (not (= x62 (_ bv7 8))))
(assert (not (= x62 (_ bv3 8))))
(assert (not (= (_ bv4 8) x64)))
(assert (not (= (_ bv4 8) x65)))
(assert (not (= (_ bv4 8) x66)))
(assert (not (= (_ bv4 8) (_ bv7 8))))
(assert (not (= (_ bv4 8) (_ bv3 8))))
(assert (not (= x64 x65)))
(assert (not (= x64 x66)))
(assert (not (= x64 (_ bv7 8))))
(assert (not (= x64 (_ bv3 8))))
(assert (not (= x65 x66)))
(assert (not (= x65 (_ bv7 8))))
(assert (not (= x65 (_ bv3 8))))
(assert (not (= x66 (_ bv7 8))))
(assert (not (= x66 (_ bv3 8))))
(assert (not (= (_ bv7 8) (_ bv3 8))))
(assert (not (= (_ bv9 8) x71)))
(assert (not (= (_ bv9 8) (_ bv7 8))))
(assert (not (= (_ bv9 8) (_ bv6 8))))
(assert (not (= (_ bv9 8) x74)))
(assert (not (= (_ bv9 8) x75)))
(assert (not (= (_ bv9 8) x76)))
(assert (not (= (_ bv9 8) (_ bv2 8))))
(assert (not (= (_ bv9 8) x78)))
(assert (not (= x71 (_ bv7 8))))
(assert (not (= x71 (_ bv6 8))))
(assert (not (= x71 x74)))
(assert (not (= x71 x75)))
(assert (not (= x71 x76)))
(assert (not (= x71 (_ bv2 8))))
(assert (not (= x71 x78)))
(assert (not (= (_ bv7 8) (_ bv6 8))))
(assert (not (= (_ bv7 8) x74)))
(assert (not (= (_ bv7 8) x75)))
(assert (not (= (_ bv7 8) x76)))
(assert (not (= (_ bv7 8) (_ bv2 8))))
(assert (not (= (_ bv7 8) x78)))
(assert (not (= (_ bv6 8) x74)))
(assert (not (= (_ bv6 8) x75)))
(assert (not (= (_ bv6 8) x76)))
(assert (not (= (_ bv6 8) (_ bv2 8))))
(assert (not (= (_ bv6 8) x78)))
(assert (not (= x74 x75)))
(assert (not (= x74 x76)))
(assert (not (= x74 (_ bv2 8))))
(assert (not (= x74 x78)))
(assert (not (= x75 x76)))
(assert (not (= x75 (_ bv2 8))))
(assert (not (= x75 x78)))
(assert (not (= x76 (_ bv2 8))))
(assert (not (= x76 x78)))
(assert (not (= (_ bv2 8) x78)))
(assert (not (= x80 x81)))
(assert (not (= x80 x82)))
(assert (not (= x80 x83)))
(assert (not (= x80 x84)))
(assert (not (= x80 (_ bv1 8))))
(assert (not (= x80 x86)))
(assert (not (= x80 (_ bv8 8))))
(assert (not (= x80 (_ bv4 8))))
(assert (not (= x81 x82)))
(assert (not (= x81 x83)))
(assert (not (= x81 x84)))
(assert (not (= x81 (_ bv1 8))))
(assert (not (= x81 x86)))
(assert (not (= x81 (_ bv8 8))))
(assert (not (= x81 (_ bv4 8))))
(assert (not (= x82 x83)))
(assert (not (= x82 x84)))
(assert (not (= x82 (_ bv1 8))))
(assert (not (= x82 x86)))
(assert (not (= x82 (_ bv8 8))))
(assert (not (= x82 (_ bv4 8))))
(assert (not (= x83 x84)))
(assert (not (= x83 (_ bv1 8))))
(assert (not (= x83 x86)))
(assert (not (= x83 (_ bv8 8))))
(assert (not (= x83 (_ bv4 8))))
(assert (not (= x84 (_ bv1 8))))
(assert (not (= x84 x86)))
(assert (not (= x84 (_ bv8 8))))
(assert (not (= x84 (_ bv4 8))))
(assert (not (= (_ bv1 8) x86)))
(assert (not (= (_ bv1 8) (_ bv8 8))))
(assert (not (= (_ bv1 8) (_ bv4 8))))
(assert (not (= x86 (_ bv8 8))))
(assert (not (= x86 (_ bv4 8))))
(assert (not (= (_ bv8 8) (_ bv4 8))))
(assert (not (= (_ bv2 8) (_ bv4 8))))
(assert (not (= (_ bv2 8) x20)))
(assert (not (= (_ bv2 8) (_ bv6 8))))
(assert (not (= (_ bv2 8) x40)))
(assert (not (= (_ bv2 8) x50)))
(assert (not (= (_ bv2 8) (_ bv8 8))))
(assert (not (= (_ bv2 8) (_ bv9 8))))
(assert (not (= (_ bv2 8) x80)))
(assert (not (= (_ bv4 8) x20)))
(assert (not (= (_ bv4 8) (_ bv6 8))))
(assert (not (= (_ bv4 8) x40)))
(assert (not (= (_ bv4 8) x50)))
(assert (not (= (_ bv4 8) (_ bv8 8))))
(assert (not (= (_ bv4 8) (_ bv9 8))))
(assert (not (= (_ bv4 8) x80)))
(assert (not (= x20 (_ bv6 8))))
(assert (not (= x20 x40)))
(assert (not (= x20 x50)))
(assert (not (= x20 (_ bv8 8))))
(assert (not (= x20 (_ bv9 8))))
(assert (not (= x20 x80)))
(assert (not (= (_ bv6 8) x40)))
(assert (not (= (_ bv6 8) x50)))
(assert (not (= (_ bv6 8) (_ bv8 8))))
(assert (not (= (_ bv6 8) (_ bv9 8))))
(assert (not (= (_ bv6 8) x80)))
(assert (not (= x40 x50)))
(assert (not (= x40 (_ bv8 8))))
(assert (not (= x40 (_ bv9 8))))
(assert (not (= x40 x80)))
(assert (not (= x50 (_ bv8 8))))
(assert (not (= x50 (_ bv9 8))))
(assert (not (= x50 x80)))
(assert (not (= (_ bv8 8) (_ bv9 8))))
(assert (not (= (_ bv8 8) x80)))
(assert (not (= (_ bv9 8) x80)))
(assert (not (= x01 x11)))
(assert (not (= x01 (_ bv7 8))))
(assert (not (= x01 (_ bv1 8))))
(assert (not (= x01 x41)))
(assert (not (= x01 (_ bv9 8))))
(assert (not (= x01 x61)))
(assert (not (= x01 x71)))
(assert (not (= x01 x81)))
(assert (not (= x11 (_ bv7 8))))
(assert (not (= x11 (_ bv1 8))))
(assert (not (= x11 x41)))
(assert (not (= x11 (_ bv9 8))))
(assert (not (= x11 x61)))
(assert (not (= x11 x71)))
(assert (not (= x11 x81)))
(assert (not (= (_ bv7 8) (_ bv1 8))))
(assert (not (= (_ bv7 8) x41)))
(assert (not (= (_ bv7 8) (_ bv9 8))))
(assert (not (= (_ bv7 8) x61)))
(assert (not (= (_ bv7 8) x71)))
(assert (not (= (_ bv7 8) x81)))
(assert (not (= (_ bv1 8) x41)))
(assert (not (= (_ bv1 8) (_ bv9 8))))
(assert (not (= (_ bv1 8) x61)))
(assert (not (= (_ bv1 8) x71)))
(assert (not (= (_ bv1 8) x81)))
(assert (not (= x41 (_ bv9 8))))
(assert (not (= x41 x61)))
(assert (not (= x41 x71)))
(assert (not (= x41 x81)))
(assert (not (= (_ bv9 8) x61)))
(assert (not (= (_ bv9 8) x71)))
(assert (not (= (_ bv9 8) x81)))
(assert (not (= x61 x71)))
(assert (not (= x61 x81)))
(assert (not (= x71 x81)))
(assert (not (= (_ bv5 8) x12)))
(assert (not (= (_ bv5 8) x22)))
(assert (not (= (_ bv5 8) (_ bv3 8))))
(assert (not (= (_ bv5 8) (_ bv8 8))))
(assert (not (= (_ bv5 8) x52)))
(assert (not (= (_ bv5 8) x62)))
(assert (not (= (_ bv5 8) (_ bv7 8))))
(assert (not (= (_ bv5 8) x82)))
(assert (not (= x12 x22)))
(assert (not (= x12 (_ bv3 8))))
(assert (not (= x12 (_ bv8 8))))
(assert (not (= x12 x52)))
(assert (not (= x12 x62)))
(assert (not (= x12 (_ bv7 8))))
(assert (not (= x12 x82)))
(assert (not (= x22 (_ bv3 8))))
(assert (not (= x22 (_ bv8 8))))
(assert (not (= x22 x52)))
(assert (not (= x22 x62)))
(assert (not (= x22 (_ bv7 8))))
(assert (not (= x22 x82)))
(assert (not (= (_ bv3 8) (_ bv8 8))))
(assert (not (= (_ bv3 8) x52)))
(assert (not (= (_ bv3 8) x62)))
(assert (not (= (_ bv3 8) (_ bv7 8))))
(assert (not (= (_ bv3 8) x82)))
(assert (not (= (_ bv8 8) x52)))
(assert (not (= (_ bv8 8) x62)))
(assert (not (= (_ bv8 8) (_ bv7 8))))
(assert (not (= (_ bv8 8) x82)))
(assert (not (= x52 x62)))
(assert (not (= x52 (_ bv7 8))))
(assert (not (= x52 x82)))
(assert (not (= x62 (_ bv7 8))))
(assert (not (= x62 x82)))
(assert (not (= (_ bv7 8) x82)))
(assert (not (= x03 x13)))
(assert (not (= x03 (_ bv9 8))))
(assert (not (= x03 x33)))
(assert (not (= x03 x43)))
(assert (not (= x03 x53)))
(assert (not (= x03 (_ bv4 8))))
(assert (not (= x03 (_ bv6 8))))
(assert (not (= x03 x83)))
(assert (not (= x13 (_ bv9 8))))
(assert (not (= x13 x33)))
(assert (not (= x13 x43)))
(assert (not (= x13 x53)))
(assert (not (= x13 (_ bv4 8))))
(assert (not (= x13 (_ bv6 8))))
(assert (not (= x13 x83)))
(assert (not (= (_ bv9 8) x33)))
(assert (not (= (_ bv9 8) x43)))
(assert (not (= (_ bv9 8) x53)))
(assert (not (= (_ bv9 8) (_ bv4 8))))
(assert (not (= (_ bv9 8) (_ bv6 8))))
(assert (not (= (_ bv9 8) x83)))
(assert (not (= x33 x43)))
(assert (not (= x33 x53)))
(assert (not (= x33 (_ bv4 8))))
(assert (not (= x33 (_ bv6 8))))
(assert (not (= x33 x83)))
(assert (not (= x43 x53)))
(assert (not (= x43 (_ bv4 8))))
(assert (not (= x43 (_ bv6 8))))
(assert (not (= x43 x83)))
(assert (not (= x53 (_ bv4 8))))
(assert (not (= x53 (_ bv6 8))))
(assert (not (= x53 x83)))
(assert (not (= (_ bv4 8) (_ bv6 8))))
(assert (not (= (_ bv4 8) x83)))
(assert (not (= (_ bv6 8) x83)))
(assert (not (= x04 (_ bv3 8))))
(assert (not (= x04 x24)))
(assert (not (= x04 (_ bv9 8))))
(assert (not (= x04 x44)))
(assert (not (= x04 (_ bv1 8))))
(assert (not (= x04 x64)))
(assert (not (= x04 x74)))
(assert (not (= x04 x84)))
(assert (not (= (_ bv3 8) x24)))
(assert (not (= (_ bv3 8) (_ bv9 8))))
(assert (not (= (_ bv3 8) x44)))
(assert (not (= (_ bv3 8) (_ bv1 8))))
(assert (not (= (_ bv3 8) x64)))
(assert (not (= (_ bv3 8) x74)))
(assert (not (= (_ bv3 8) x84)))
(assert (not (= x24 (_ bv9 8))))
(assert (not (= x24 x44)))
(assert (not (= x24 (_ bv1 8))))
(assert (not (= x24 x64)))
(assert (not (= x24 x74)))
(assert (not (= x24 x84)))
(assert (not (= (_ bv9 8) x44)))
(assert (not (= (_ bv9 8) (_ bv1 8))))
(assert (not (= (_ bv9 8) x64)))
(assert (not (= (_ bv9 8) x74)))
(assert (not (= (_ bv9 8) x84)))
(assert (not (= x44 (_ bv1 8))))
(assert (not (= x44 x64)))
(assert (not (= x44 x74)))
(assert (not (= x44 x84)))
(assert (not (= (_ bv1 8) x64)))
(assert (not (= (_ bv1 8) x74)))
(assert (not (= (_ bv1 8) x84)))
(assert (not (= x64 x74)))
(assert (not (= x64 x84)))
(assert (not (= x74 x84)))
(assert (not (= (_ bv6 8) x15)))
(assert (not (= (_ bv6 8) x25)))
(assert (not (= (_ bv6 8) x35)))
(assert (not (= (_ bv6 8) (_ bv5 8))))
(assert (not (= (_ bv6 8) (_ bv2 8))))
(assert (not (= (_ bv6 8) x65)))
(assert (not (= (_ bv6 8) x75)))
(assert (not (= (_ bv6 8) (_ bv1 8))))
(assert (not (= x15 x25)))
(assert (not (= x15 x35)))
(assert (not (= x15 (_ bv5 8))))
(assert (not (= x15 (_ bv2 8))))
(assert (not (= x15 x65)))
(assert (not (= x15 x75)))
(assert (not (= x15 (_ bv1 8))))
(assert (not (= x25 x35)))
(assert (not (= x25 (_ bv5 8))))
(assert (not (= x25 (_ bv2 8))))
(assert (not (= x25 x65)))
(assert (not (= x25 x75)))
(assert (not (= x25 (_ bv1 8))))
(assert (not (= x35 (_ bv5 8))))
(assert (not (= x35 (_ bv2 8))))
(assert (not (= x35 x65)))
(assert (not (= x35 x75)))
(assert (not (= x35 (_ bv1 8))))
(assert (not (= (_ bv5 8) (_ bv2 8))))
(assert (not (= (_ bv5 8) x65)))
(assert (not (= (_ bv5 8) x75)))
(assert (not (= (_ bv5 8) (_ bv1 8))))
(assert (not (= (_ bv2 8) x65)))
(assert (not (= (_ bv2 8) x75)))
(assert (not (= (_ bv2 8) (_ bv1 8))))
(assert (not (= x65 x75)))
(assert (not (= x65 (_ bv1 8))))
(assert (not (= x75 (_ bv1 8))))
(assert (not (= x06 (_ bv5 8))))
(assert (not (= x06 (_ bv3 8))))
(assert (not (= x06 x36)))
(assert (not (= x06 (_ bv4 8))))
(assert (not (= x06 (_ bv7 8))))
(assert (not (= x06 x66)))
(assert (not (= x06 x76)))
(assert (not (= x06 x86)))
(assert (not (= (_ bv5 8) (_ bv3 8))))
(assert (not (= (_ bv5 8) x36)))
(assert (not (= (_ bv5 8) (_ bv4 8))))
(assert (not (= (_ bv5 8) (_ bv7 8))))
(assert (not (= (_ bv5 8) x66)))
(assert (not (= (_ bv5 8) x76)))
(assert (not (= (_ bv5 8) x86)))
(assert (not (= (_ bv3 8) x36)))
(assert (not (= (_ bv3 8) (_ bv4 8))))
(assert (not (= (_ bv3 8) (_ bv7 8))))
(assert (not (= (_ bv3 8) x66)))
(assert (not (= (_ bv3 8) x76)))
(assert (not (= (_ bv3 8) x86)))
(assert (not (= x36 (_ bv4 8))))
(assert (not (= x36 (_ bv7 8))))
(assert (not (= x36 x66)))
(assert (not (= x36 x76)))
(assert (not (= x36 x86)))
(assert (not (= (_ bv4 8) (_ bv7 8))))
(assert (not (= (_ bv4 8) x66)))
(assert (not (= (_ bv4 8) x76)))
(assert (not (= (_ bv4 8) x86)))
(assert (not (= (_ bv7 8) x66)))
(assert (not (= (_ bv7 8) x76)))
(assert (not (= (_ bv7 8) x86)))
(assert (not (= x66 x76)))
(assert (not (= x66 x86)))
(assert (not (= x76 x86)))
(assert (not (= x07 x17)))
(assert (not (= x07 (_ bv4 8))))
(assert (not (= x07 x37)))
(assert (not (= x07 x47)))
(assert (not (= x07 (_ bv3 8))))
(assert (not (= x07 (_ bv7 8))))
(assert (not (= x07 (_ bv2 8))))
(assert (not (= x07 (_ bv8 8))))
(assert (not (= x17 (_ bv4 8))))
(assert (not (= x17 x37)))
(assert (not (= x17 x47)))
(assert (not (= x17 (_ bv3 8))))
(assert (not (= x17 (_ bv7 8))))
(assert (not (= x17 (_ bv2 8))))
(assert (not (= x17 (_ bv8 8))))
(assert (not (= (_ bv4 8) x37)))
(assert (not (= (_ bv4 8) x47)))
(assert (not (= (_ bv4 8) (_ bv3 8))))
(assert (not (= (_ bv4 8) (_ bv7 8))))
(assert (not (= (_ bv4 8) (_ bv2 8))))
(assert (not (= (_ bv4 8) (_ bv8 8))))
(assert (not (= x37 x47)))
(assert (not (= x37 (_ bv3 8))))
(assert (not (= x37 (_ bv7 8))))
(assert (not (= x37 (_ bv2 8))))
(assert (not (= x37 (_ bv8 8))))
(assert (not (= x47 (_ bv3 8))))
(assert (not (= x47 (_ bv7 8))))
(assert (not (= x47 (_ bv2 8))))
(assert (not (= x47 (_ bv8 8))))
(assert (not (= (_ bv3 8) (_ bv7 8))))
(assert (not (= (_ bv3 8) (_ bv2 8))))
(assert (not (= (_ bv3 8) (_ bv8 8))))
(assert (not (= (_ bv7 8) (_ bv2 8))))
(assert (not (= (_ bv7 8) (_ bv8 8))))
(assert (not (= (_ bv2 8) (_ bv8 8))))
(assert (not (= x08 (_ bv1 8))))
(assert (not (= x08 x28)))
(assert (not (= x08 x38)))
(assert (not (= x08 x48)))
(assert (not (= x08 x58)))
(assert (not (= x08 (_ bv3 8))))
(assert (not (= x08 x78)))
(assert (not (= x08 (_ bv4 8))))
(assert (not (= (_ bv1 8) x28)))
(assert (not (= (_ bv1 8) x38)))
(assert (not (= (_ bv1 8) x48)))
(assert (not (= (_ bv1 8) x58)))
(assert (not (= (_ bv1 8) (_ bv3 8))))
(assert (not (= (_ bv1 8) x78)))
(assert (not (= (_ bv1 8) (_ bv4 8))))
(assert (not (= x28 x38)))
(assert (not (= x28 x48)))
(assert (not (= x28 x58)))
(assert (not (= x28 (_ bv3 8))))
(assert (not (= x28 x78)))
(assert (not (= x28 (_ bv4 8))))
(assert (not (= x38 x48)))
(assert (not (= x38 x58)))
(assert (not (= x38 (_ bv3 8))))
(assert (not (= x38 x78)))
(assert (not (= x38 (_ bv4 8))))
(assert (not (= x48 x58)))
(assert (not (= x48 (_ bv3 8))))
(assert (not (= x48 x78)))
(assert (not (= x48 (_ bv4 8))))
(assert (not (= x58 (_ bv3 8))))
(assert (not (= x58 x78)))
(assert (not (= x58 (_ bv4 8))))
(assert (not (= (_ bv3 8) x78)))
(assert (not (= (_ bv3 8) (_ bv4 8))))
(assert (not (= x78 (_ bv4 8))))
(assert (not (= (_ bv2 8) x01)))
(assert (not (= (_ bv2 8) (_ bv5 8))))
(assert (not (= (_ bv2 8) (_ bv4 8))))
(assert (not (= (_ bv2 8) x11)))
(assert (not (= (_ bv2 8) x12)))
(assert (not (= (_ bv2 8) x20)))
(assert (not (= (_ bv2 8) (_ bv7 8))))
(assert (not (= (_ bv2 8) x22)))
(assert (not (= x01 (_ bv5 8))))
(assert (not (= x01 (_ bv4 8))))
(assert (not (= x01 x11)))
(assert (not (= x01 x12)))
(assert (not (= x01 x20)))
(assert (not (= x01 (_ bv7 8))))
(assert (not (= x01 x22)))
(assert (not (= (_ bv5 8) (_ bv4 8))))
(assert (not (= (_ bv5 8) x11)))
(assert (not (= (_ bv5 8) x12)))
(assert (not (= (_ bv5 8) x20)))
(assert (not (= (_ bv5 8) (_ bv7 8))))
(assert (not (= (_ bv5 8) x22)))
(assert (not (= (_ bv4 8) x11)))
(assert (not (= (_ bv4 8) x12)))
(assert (not (= (_ bv4 8) x20)))
(assert (not (= (_ bv4 8) (_ bv7 8))))
(assert (not (= (_ bv4 8) x22)))
(assert (not (= x11 x12)))
(assert (not (= x11 x20)))
(assert (not (= x11 (_ bv7 8))))
(assert (not (= x11 x22)))
(assert (not (= x12 x20)))
(assert (not (= x12 (_ bv7 8))))
(assert (not (= x12 x22)))
(assert (not (= x20 (_ bv7 8))))
(assert (not (= x20 x22)))
(assert (not (= (_ bv7 8) x22)))
(assert (not (= x03 x04)))
(assert (not (= x03 (_ bv6 8))))
(assert (not (= x03 x13)))
(assert (not (= x03 (_ bv3 8))))
(assert (not (= x03 x15)))
(assert (not (= x03 (_ bv9 8))))
(assert (not (= x03 x24)))
(assert (not (= x03 x25)))
(assert (not (= x04 (_ bv6 8))))
(assert (not (= x04 x13)))
(assert (not (= x04 (_ bv3 8))))
(assert (not (= x04 x15)))
(assert (not (= x04 (_ bv9 8))))
(assert (not (= x04 x24)))
(assert (not (= x04 x25)))
(assert (not (= (_ bv6 8) x13)))
(assert (not (= (_ bv6 8) (_ bv3 8))))
(assert (not (= (_ bv6 8) x15)))
(assert (not (= (_ bv6 8) (_ bv9 8))))
(assert (not (= (_ bv6 8) x24)))
(assert (not (= (_ bv6 8) x25)))
(assert (not (= x13 (_ bv3 8))))
(assert (not (= x13 x15)))
(assert (not (= x13 (_ bv9 8))))
(assert (not (= x13 x24)))
(assert (not (= x13 x25)))
(assert (not (= (_ bv3 8) x15)))
(assert (not (= (_ bv3 8) (_ bv9 8))))
(assert (not (= (_ bv3 8) x24)))
(assert (not (= (_ bv3 8) x25)))
(assert (not (= x15 (_ bv9 8))))
(assert (not (= x15 x24)))
(assert (not (= x15 x25)))
(assert (not (= (_ bv9 8) x24)))
(assert (not (= (_ bv9 8) x25)))
(assert (not (= x24 x25)))
(assert (not (= x06 x07)))
(assert (not (= x06 x08)))
(assert (not (= x06 (_ bv5 8))))
(assert (not (= x06 x17)))
(assert (not (= x06 (_ bv1 8))))
(assert (not (= x06 (_ bv3 8))))
(assert (not (= x06 (_ bv4 8))))
(assert (not (= x06 x28)))
(assert (not (= x07 x08)))
(assert (not (= x07 (_ bv5 8))))
(assert (not (= x07 x17)))
(assert (not (= x07 (_ bv1 8))))
(assert (not (= x07 (_ bv3 8))))
(assert (not (= x07 (_ bv4 8))))
(assert (not (= x07 x28)))
(assert (not (= x08 (_ bv5 8))))
(assert (not (= x08 x17)))
(assert (not (= x08 (_ bv1 8))))
(assert (not (= x08 (_ bv3 8))))
(assert (not (= x08 (_ bv4 8))))
(assert (not (= x08 x28)))
(assert (not (= (_ bv5 8) x17)))
(assert (not (= (_ bv5 8) (_ bv1 8))))
(assert (not (= (_ bv5 8) (_ bv3 8))))
(assert (not (= (_ bv5 8) (_ bv4 8))))
(assert (not (= (_ bv5 8) x28)))
(assert (not (= x17 (_ bv1 8))))
(assert (not (= x17 (_ bv3 8))))
(assert (not (= x17 (_ bv4 8))))
(assert (not (= x17 x28)))
(assert (not (= (_ bv1 8) (_ bv3 8))))
(assert (not (= (_ bv1 8) (_ bv4 8))))
(assert (not (= (_ bv1 8) x28)))
(assert (not (= (_ bv3 8) (_ bv4 8))))
(assert (not (= (_ bv3 8) x28)))
(assert (not (= (_ bv4 8) x28)))
(assert (not (= (_ bv6 8) (_ bv1 8))))
(assert (not (= (_ bv6 8) (_ bv3 8))))
(assert (not (= (_ bv6 8) x40)))
(assert (not (= (_ bv6 8) x41)))
(assert (not (= (_ bv6 8) (_ bv8 8))))
(assert (not (= (_ bv6 8) x50)))
(assert (not (= (_ bv6 8) (_ bv9 8))))
(assert (not (= (_ bv6 8) x52)))
(assert (not (= (_ bv1 8) (_ bv3 8))))
(assert (not (= (_ bv1 8) x40)))
(assert (not (= (_ bv1 8) x41)))
(assert (not (= (_ bv1 8) (_ bv8 8))))
(assert (not (= (_ bv1 8) x50)))
(assert (not (= (_ bv1 8) (_ bv9 8))))
(assert (not (= (_ bv1 8) x52)))
(assert (not (= (_ bv3 8) x40)))
(assert (not (= (_ bv3 8) x41)))
(assert (not (= (_ bv3 8) (_ bv8 8))))
(assert (not (= (_ bv3 8) x50)))
(assert (not (= (_ bv3 8) (_ bv9 8))))
(assert (not (= (_ bv3 8) x52)))
(assert (not (= x40 x41)))
(assert (not (= x40 (_ bv8 8))))
(assert (not (= x40 x50)))
(assert (not (= x40 (_ bv9 8))))
(assert (not (= x40 x52)))
(assert (not (= x41 (_ bv8 8))))
(assert (not (= x41 x50)))
(assert (not (= x41 (_ bv9 8))))
(assert (not (= x41 x52)))
(assert (not (= (_ bv8 8) x50)))
(assert (not (= (_ bv8 8) (_ bv9 8))))
(assert (not (= (_ bv8 8) x52)))
(assert (not (= x50 (_ bv9 8))))
(assert (not (= x50 x52)))
(assert (not (= (_ bv9 8) x52)))
(assert (not (= x33 (_ bv9 8))))
(assert (not (= x33 x35)))
(assert (not (= x33 x43)))
(assert (not (= x33 x44)))
(assert (not (= x33 (_ bv5 8))))
(assert (not (= x33 x53)))
(assert (not (= x33 (_ bv1 8))))
(assert (not (= x33 (_ bv2 8))))
(assert (not (= (_ bv9 8) x35)))
(assert (not (= (_ bv9 8) x43)))
(assert (not (= (_ bv9 8) x44)))
(assert (not (= (_ bv9 8) (_ bv5 8))))
(assert (not (= (_ bv9 8) x53)))
(assert (not (= (_ bv9 8) (_ bv1 8))))
(assert (not (= (_ bv9 8) (_ bv2 8))))
(assert (not (= x35 x43)))
(assert (not (= x35 x44)))
(assert (not (= x35 (_ bv5 8))))
(assert (not (= x35 x53)))
(assert (not (= x35 (_ bv1 8))))
(assert (not (= x35 (_ bv2 8))))
(assert (not (= x43 x44)))
(assert (not (= x43 (_ bv5 8))))
(assert (not (= x43 x53)))
(assert (not (= x43 (_ bv1 8))))
(assert (not (= x43 (_ bv2 8))))
(assert (not (= x44 (_ bv5 8))))
(assert (not (= x44 x53)))
(assert (not (= x44 (_ bv1 8))))
(assert (not (= x44 (_ bv2 8))))
(assert (not (= (_ bv5 8) x53)))
(assert (not (= (_ bv5 8) (_ bv1 8))))
(assert (not (= (_ bv5 8) (_ bv2 8))))
(assert (not (= x53 (_ bv1 8))))
(assert (not (= x53 (_ bv2 8))))
(assert (not (= (_ bv1 8) (_ bv2 8))))
(assert (not (= x36 x37)))
(assert (not (= x36 x38)))
(assert (not (= x36 (_ bv4 8))))
(assert (not (= x36 x47)))
(assert (not (= x36 x48)))
(assert (not (= x36 (_ bv7 8))))
(assert (not (= x36 (_ bv3 8))))
(assert (not (= x36 x58)))
(assert (not (= x37 x38)))
(assert (not (= x37 (_ bv4 8))))
(assert (not (= x37 x47)))
(assert (not (= x37 x48)))
(assert (not (= x37 (_ bv7 8))))
(assert (not (= x37 (_ bv3 8))))
(assert (not (= x37 x58)))
(assert (not (= x38 (_ bv4 8))))
(assert (not (= x38 x47)))
(assert (not (= x38 x48)))
(assert (not (= x38 (_ bv7 8))))
(assert (not (= x38 (_ bv3 8))))
(assert (not (= x38 x58)))
(assert (not (= (_ bv4 8) x47)))
(assert (not (= (_ bv4 8) x48)))
(assert (not (= (_ bv4 8) (_ bv7 8))))
(assert (not (= (_ bv4 8) (_ bv3 8))))
(assert (not (= (_ bv4 8) x58)))
(assert (not (= x47 x48)))
(assert (not (= x47 (_ bv7 8))))
(assert (not (= x47 (_ bv3 8))))
(assert (not (= x47 x58)))
(assert (not (= x48 (_ bv7 8))))
(assert (not (= x48 (_ bv3 8))))
(assert (not (= x48 x58)))
(assert (not (= (_ bv7 8) (_ bv3 8))))
(assert (not (= (_ bv7 8) x58)))
(assert (not (= (_ bv3 8) x58)))
(assert (not (= (_ bv8 8) x61)))
(assert (not (= (_ bv8 8) x62)))
(assert (not (= (_ bv8 8) (_ bv9 8))))
(assert (not (= (_ bv8 8) x71)))
(assert (not (= (_ bv8 8) (_ bv7 8))))
(assert (not (= (_ bv8 8) x80)))
(assert (not (= (_ bv8 8) x81)))
(assert (not (= (_ bv8 8) x82)))
(assert (not (= x61 x62)))
(assert (not (= x61 (_ bv9 8))))
(assert (not (= x61 x71)))
(assert (not (= x61 (_ bv7 8))))
(assert (not (= x61 x80)))
(assert (not (= x61 x81)))
(assert (not (= x61 x82)))
(assert (not (= x62 (_ bv9 8))))
(assert (not (= x62 x71)))
(assert (not (= x62 (_ bv7 8))))
(assert (not (= x62 x80)))
(assert (not (= x62 x81)))
(assert (not (= x62 x82)))
(assert (not (= (_ bv9 8) x71)))
(assert (not (= (_ bv9 8) (_ bv7 8))))
(assert (not (= (_ bv9 8) x80)))
(assert (not (= (_ bv9 8) x81)))
(assert (not (= (_ bv9 8) x82)))
(assert (not (= x71 (_ bv7 8))))
(assert (not (= x71 x80)))
(assert (not (= x71 x81)))
(assert (not (= x71 x82)))
(assert (not (= (_ bv7 8) x80)))
(assert (not (= (_ bv7 8) x81)))
(assert (not (= (_ bv7 8) x82)))
(assert (not (= x80 x81)))
(assert (not (= x80 x82)))
(assert (not (= x81 x82)))
(assert (not (= (_ bv4 8) x64)))
(assert (not (= (_ bv4 8) x65)))
(assert (not (= (_ bv4 8) (_ bv6 8))))
(assert (not (= (_ bv4 8) x74)))
(assert (not (= (_ bv4 8) x75)))
(assert (not (= (_ bv4 8) x83)))
(assert (not (= (_ bv4 8) x84)))
(assert (not (= (_ bv4 8) (_ bv1 8))))
(assert (not (= x64 x65)))
(assert (not (= x64 (_ bv6 8))))
(assert (not (= x64 x74)))
(assert (not (= x64 x75)))
(assert (not (= x64 x83)))
(assert (not (= x64 x84)))
(assert (not (= x64 (_ bv1 8))))
(assert (not (= x65 (_ bv6 8))))
(assert (not (= x65 x74)))
(assert (not (= x65 x75)))
(assert (not (= x65 x83)))
(assert (not (= x65 x84)))
(assert (not (= x65 (_ bv1 8))))
(assert (not (= (_ bv6 8) x74)))
(assert (not (= (_ bv6 8) x75)))
(assert (not (= (_ bv6 8) x83)))
(assert (not (= (_ bv6 8) x84)))
(assert (not (= (_ bv6 8) (_ bv1 8))))
(assert (not (= x74 x75)))
(assert (not (= x74 x83)))
(assert (not (= x74 x84)))
(assert (not (= x74 (_ bv1 8))))
(assert (not (= x75 x83)))
(assert (not (= x75 x84)))
(assert (not (= x75 (_ bv1 8))))
(assert (not (= x83 x84)))
(assert (not (= x83 (_ bv1 8))))
(assert (not (= x84 (_ bv1 8))))
(assert (not (= x66 (_ bv7 8))))
(assert (not (= x66 (_ bv3 8))))
(assert (not (= x66 x76)))
(assert (not (= x66 (_ bv2 8))))
(assert (not (= x66 x78)))
(assert (not (= x66 x86)))
(assert (not (= x66 (_ bv8 8))))
(assert (not (= x66 (_ bv4 8))))
(assert (not (= (_ bv7 8) (_ bv3 8))))
(assert (not (= (_ bv7 8) x76)))
(assert (not (= (_ bv7 8) (_ bv2 8))))
(assert (not (= (_ bv7 8) x78)))
(assert (not (= (_ bv7 8) x86)))
(assert (not (= (_ bv7 8) (_ bv8 8))))
(assert (not (= (_ bv7 8) (_ bv4 8))))
(assert (not (= (_ bv3 8) x76)))
(assert (not (= (_ bv3 8) (_ bv2 8))))
(assert (not (= (_ bv3 8) x78)))
(assert (not (= (_ bv3 8) x86)))
(assert (not (= (_ bv3 8) (_ bv8 8))))
(assert (not (= (_ bv3 8) (_ bv4 8))))
(assert (not (= x76 (_ bv2 8))))
(assert (not (= x76 x78)))
(assert (not (= x76 x86)))
(assert (not (= x76 (_ bv8 8))))
(assert (not (= x76 (_ bv4 8))))
(assert (not (= (_ bv2 8) x78)))
(assert (not (= (_ bv2 8) x86)))
(assert (not (= (_ bv2 8) (_ bv8 8))))
(assert (not (= (_ bv2 8) (_ bv4 8))))
(assert (not (= x78 x86)))
(assert (not (= x78 (_ bv8 8))))
(assert (not (= x78 (_ bv4 8))))
(assert (not (= x86 (_ bv8 8))))
(assert (not (= x86 (_ bv4 8))))
(assert (not (= (_ bv8 8) (_ bv4 8))))
(check-sat)
(exit)
